NAME: line_100_6
TYPE: TSP
COMMENT: line_100_6
DIMENSION: 100
EDGE_WEIGHT_TYPE: EUC_2D
NODE_COORD_SECTION
1 0.0 238.0
2 0.0 133.0
3 0.0 86.0
4 0.0 627.0
5 0.0 669.0
6 0.0 283.0
7 0.0 136.0
8 0.0 355.0
9 0.0 939.0
10 0.0 949.0
11 0.0 110.0
12 0.0 874.0
13 0.0 444.0
14 0.0 418.0
15 0.0 750.0
16 0.0 58.0
17 0.0 107.0
18 0.0 615.0
19 0.0 790.0
20 0.0 82.0
21 0.0 208.0
22 0.0 995.0
23 0.0 376.0
24 0.0 986.0
25 0.0 680.0
26 0.0 628.0
27 0.0 1.0
28 0.0 699.0
29 0.0 939.0
30 0.0 341.0
31 0.0 846.0
32 0.0 417.0
33 0.0 93.0
34 0.0 672.0
35 0.0 744.0
36 0.0 172.0
37 0.0 642.0
38 0.0 491.0
39 0.0 465.0
40 0.0 787.0
41 0.0 460.0
42 0.0 888.0
43 0.0 624.0
44 0.0 216.0
45 0.0 512.0
46 0.0 946.0
47 0.0 375.0
48 0.0 317.0
49 0.0 625.0
50 0.0 483.0
51 0.0 779.0
52 0.0 466.0
53 0.0 957.0
54 0.0 887.0
55 0.0 758.0
56 0.0 713.0
57 0.0 629.0
58 0.0 660.0
59 0.0 712.0
60 0.0 655.0
61 0.0 243.0
62 0.0 161.0
63 0.0 622.0
64 0.0 821.0
65 0.0 44.0
66 0.0 196.0
67 0.0 731.0
68 0.0 794.0
69 0.0 276.0
70 0.0 320.0
71 0.0 267.0
72 0.0 145.0
73 0.0 490.0
74 0.0 920.0
75 0.0 96.0
76 0.0 165.0
77 0.0 628.0
78 0.0 152.0
79 0.0 978.0
80 0.0 616.0
81 0.0 937.0
82 0.0 287.0
83 0.0 724.0
84 0.0 766.0
85 0.0 398.0
86 0.0 266.0
87 0.0 801.0
88 0.0 252.0
89 0.0 939.0
90 0.0 900.0
91 0.0 266.0
92 0.0 903.0
93 0.0 101.0
94 0.0 524.0
95 0.0 423.0
96 0.0 803.0
97 0.0 250.0
98 0.0 600.0
99 0.0 650.0
100 0.0 43.0
